# Copyright 2014 - Anthony Awuley
# Brock University
# Computer Science Department

# GENERAL parameters
number-of-experiments                = 15
generations                          = 150
population-size                      = 4000
stop-when-solved                     = true
crossover-probability                = 0.9
mutation-probability                 = 0.1
selection-pressure                   = 0.9

# How many times the genotype is allowed to wrap
max-repairs                          = 1

# SELECTION
selection-operation                  = operator.operations.selection.TournamentSelection
tournament-size                      = 3
 
# REPRODUCTION operators
# Probability of crossover. State if the point of crossover is fixed on both chromosomes (The size will always be the same) or not
mutation_operation                   = Operator.Operations.IntFlipMutation
elite-size                           = 5
 
 
# The chromosomes are fixed length structures and doesnt change to mutation and crossover. 
# The initialiser will random create integer strings in this case of length specified
initial-chromosome-size              = 100
  
# FITNESS function - Fitness function requires the full package name
#fitness-function                    = fitnessevaluation.singleObjective.WeightedSum
#fitness-function                    = fitnessevaluation.simplefitness.FitnessExperimental
#fitness-function                    = fitnessevaluation.vrptw.WS
#fitness-function                    = fitnessevaluation.vrptw.SOR
#fitness-function                    = fitnessevaluation.vrptw.PR
#fitness-function                    = fitnessevaluation.eval.TSP
fitness-function                     = fitnessevaluation.eval.CVRP

# EC
main-class                           = main.Run

# INITIALISATION - Specifies which module to use as an initialiser initial population. 
initialiser                          = operator.initialiser.Initialise
#gene-representation                 = individuals.representation.VRPTW
gene-representation                  = individuals.representation.hybrid.TSP

# REPLACEMENT
replacement-operation                = operator.operations.replacement.Generational

# CROSSOVER MODULE
#crossover-operation                 = operator.crossover.CycleCrossover
crossover-operation                  = operator.crossover.UniformOrderCrossover

# MUTATION MODULE
mutation-operation                   = operator.mutation.Inversion
 

# Specification of output statistics files
number-of-individuals                = 1
#stats-operation                     = util.statistics.mop.ParethoStatistics
#stats-operation                     = util.statistics.mop.SumOfRankStatistics
#stats-operation                     = util.statistics.BasicStatistics
#stats-operation                     = util.statistics.sob.TSPStatistics
stats-operation                      = util.statistics.mop.CVRPHybridStatistics


NAME : eilB101
COMMENT : (Eilon et al.)
TYPE : CVRP
DIMENSION : 101
EDGE_WEIGHT_TYPE : EUC_2D
nodes                                = 100
stat-out                             = eilB101
vehicle-capacity                     = 112
NODE_COORD_SECTION
1	35	35	0
2	41	49	10
3	35	17	7
4	55	45	13
5	55	20	19
6	15	30	26
7	25	30	3
8	20	50	5
9	10	43	9
10	55	60	16
11	30	60	16
12	20	65	12
13	50	35	19
14	30	25	23
15	15	10	20
16	30	5	8
17	10	20	19
18	5	30	2
19	20	40	12
20	15	60	17
21	45	65	9
22	45	20	11
23	45	10	18
24	55	5	29
25	65	35	3
26	65	20	6
27	45	30	17
28	35	40	16
29	41	37	16
30	64	42	9
31	40	60	21
32	31	52	27
33	35	69	23
34	53	52	11
35	65	55	14
36	63	65	8
37	2	60	5
38	20	20	8
39	5	5	16
40	60	12	31
41	40	25	9
42	42	7	5
43	24	12	5
44	23	3	7
45	11	14	18
46	6	38	16
47	2	48	1
48	8	56	27
49	13	52	36
50	6	68	30
51	47	47	13
52	49	58	10
53	27	43	9
54	37	31	14
55	57	29	18
56	63	23	2
57	53	12	6
58	32	12	7
59	36	26	18
60	21	24	28
61	17	34	3
62	12	24	13
63	24	58	19
64	27	69	10
65	15	77	9
66	62	77	20
67	49	73	25
68	67	5	25
69	56	39	36
70	37	47	6
71	37	56	5
72	57	68	15
73	47	16	25
74	44	17	9
75	46	13	8
76	49	11	18
77	49	42	13
78	53	43	14
79	61	52	3
80	57	48	23
81	56	37	6
82	55	54	26
83	15	47	16
84	14	37	11
85	11	31	7
86	16	22	41
87	4	18	35
88	28	18	26
89	26	52	9
90	26	35	15
91	31	67	3
92	15	19	1
93	22	22	2
94	18	24	22
95	26	27	27
96	25	24	20
97	22	27	11
98	25	21	12
99	19	21	10
100	20	26	9
101	18	18	17
DEPOT_SECTION

EOF
